DIMACS2
80 247 66 77 88 256 213 299 78 313 171 110 201 199 278 15 304 106 63 276 270 254 168 113 116 144 1 41 104 118 53 202 245 186 197 212 267 263 314 31 32 215 26 223 164 94 295 82 89 232 25 237 174 208 138 286 259 30 317 64 238 115 290 36 143 266 72 176 157 95 3 102 187 200 294 230 296 112 85 48 83
p edge 320 1941
e 0 311 1.0
e 1 25 40.0
e 1 0 27.0
e 1 234 12.0
e 1 294 11.0
e 1 169 12.0
e 1 119 12.0
e 1 68 3.0
e 1 104 18.0
e 1 244 16.0
e 1 50 40.0
e 1 282 15.0
e 1 100 15.0
e 1 96 31.0
e 1 312 35.0
e 1 259 40.0
e 1 85 20.0
e 1 256 21.0
e 1 79 44.0
e 1 156 37.0
e 1 202 20.0
e 1 72 21.0
e 1 58 2.0
e 1 288 39.0
e 1 52 13.0
e 1 185 6.0
e 2 37 1.0
e 2 175 1.0
e 3 103 25.0
e 3 225 40.0
e 3 132 48.0
e 3 290 47.0
e 3 47 7.0
e 3 54 32.0
e 3 4 43.0
e 3 106 31.0
e 3 70 23.0
e 3 285 31.0
e 3 221 25.0
e 3 115 1.0
e 3 211 35.0
e 3 270 42.0
e 3 203 21.0
e 3 314 19.0
e 3 97 35.0
e 3 210 10.0
e 3 224 45.0
e 3 76 16.0
e 3 5 6.0
e 3 217 10.0
e 3 63 28.0
e 3 71 1.0
e 3 13 1.0
e 4 120 2.0
e 5 156 1.0
e 6 26 6.0
e 6 8 4.0
e 7 256 42.0
e 8 283 1.0
e 8 14 6.0
e 9 249 3.0
e 10 76 1.0
e 11 169 2.0
e 12 167 1.0
e 13 14 1.0
e 14 129 1.0
e 15 61 12.0
e 15 19 5.0
e 15 265 32.0
e 15 295 3.0
e 15 190 6.0
e 15 212 28.0
e 15 226 27.0
e 15 135 16.0
e 15 153 2.0
e 15 63 30.0
e 15 31 46.0
e 15 237 44.0
e 15 141 7.0
e 15 145 26.0
e 15 297 25.0
e 15 222 5.0
e 15 53 26.0
e 15 12 23.0
e 15 182 37.0
e 15 173 20.0
e 15 101 10.0
e 15 127 49.0
e 15 71 49.0
e 15 256 27.0
e 15 16 7.0
e 16 246 2.0
e 17 107 1.0
e 18 30 24.0
e 18 223 2.0
e 18 261 4.0
e 19 9 3.0
e 20 89 43.0
e 21 144 11.0
e 21 44 6.0
e 21 83 7.0
e 21 159 1.0
e 22 85 40.0
e 22 189 1.0
e 23 315 1.0
e 24 65 1.0
e 25 233 37.0
e 25 178 26.0
e 25 273 24.0
e 25 246 37.0
e 25 279 32.0
e 25 33 7.0
e 25 288 19.0
e 25 75 37.0
e 25 44 19.0
e 25 126 34.0
e 25 149 31.0
e 25 40 40.0
e 25 204 32.0
e 25 28 34.0
e 25 138 40.0
e 25 67 47.0
e 25 226 33.0
e 25 295 30.0
e 25 134 24.0
e 25 241 37.0
e 25 144 25.0
e 25 238 16.0
e 25 23 6.0
e 26 138 30.0
e 26 84 27.0
e 26 90 33.0
e 26 232 44.0
e 26 256 11.0
e 26 286 7.0
e 26 160 14.0
e 26 136 3.0
e 26 260 42.0
e 26 9 48.0
e 26 297 44.0
e 26 151 27.0
e 26 0 11.0
e 26 111 46.0
e 26 275 45.0
e 26 13 26.0
e 26 303 46.0
e 26 16 45.0
e 26 73 5.0
e 26 112 23.0
e 26 37 48.0
e 27 216 1.0
e 28 223 30.0
e 28 258 2.0
e 28 4 4.0
e 29 60 1.0
e 29 4 1.0
e 30 178 38.0
e 30 127 4.0
e 30 209 30.0
e 30 188 1.0
e 30 168 22.0
e 30 72 23.0
e 30 288 8.0
e 30 94 8.0
e 30 204 18.0
e 30 262 3.0
e 30 299 10.0
e 30 174 30.0
e 30 268 45.0
e 30 134 45.0
e 30 73 44.0
e 30 69 24.0
e 30 250 27.0
e 30 217 12.0
e 30 306 24.0
e 30 252 36.0
e 30 266 17.0
e 30 258 46.0
e 30 151 15.0
e 30 42 43.0
e 31 110 19.0
e 31 116 13.0
e 31 113 32.0
e 31 35 33.0
e 31 106 30.0
e 31 139 18.0
e 31 140 13.0
e 31 205 12.0
e 31 67 6.0
e 31 161 33.0
e 31 92 40.0
e 31 25 40.0
e 31 104 6.0
e 31 176 8.0
e 31 245 13.0
e 31 201 47.0
e 31 261 29.0
e 31 165 3.0
e 31 109 1.0
e 31 64 33.0
e 31 142 1.0
e 31 203 2.0
e 32 138 49.0
e 32 284 24.0
e 32 285 35.0
e 32 90 4.0
e 32 122 33.0
e 32 118 23.0
e 32 91 16.0
e 32 50 39.0
e 32 124 47.0
e 32 236 38.0
e 32 302 6.0
e 32 110 18.0
e 32 175 21.0
e 32 196 28.0
e 32 35 4.0
e 32 53 28.0
e 32 10 36.0
e 32 183 8.0
e 32 80 17.0
e 32 213 20.0
e 32 24 31.0
e 32 190 38.0
e 32 129 48.0
e 32 49 7.0
e 33 9 2.0
e 34 53 25.0
e 35 211 1.0
e 36 258 29.0
e 36 250 46.0
e 36 251 7.0
e 36 102 23.0
e 36 244 18.0
e 36 62 9.0
e 36 44 26.0
e 36 3 45.0
e 36 169 31.0
e 36 303 15.0
e 36 78 17.0
e 36 103 4.0
e 36 242 18.0
e 36 60 1.0
e 36 37 30.0
e 36 84 16.0
e 36 294 31.0
e 36 197 44.0
e 36 160 31.0
e 36 117 19.0
e 36 253 1.0
e 36 143 40.0
e 36 202 33.0
e 36 107 13.0
e 37 276 5.0
e 38 276 48.0
e 38 287 4.0
e 38 68 2.0
e 38 79 1.0
e 39 49 4.0
e 40 94 37.0
e 41 262 20.0
e 41 133 30.0
e 41 111 43.0
e 41 280 7.0
e 41 128 31.0
e 41 21 8.0
e 41 90 24.0
e 41 170 2.0
e 41 65 26.0
e 41 55 3.0
e 41 259 40.0
e 41 231 26.0
e 41 100 15.0
e 41 196 7.0
e 41 272 46.0
e 41 273 22.0
e 41 182 35.0
e 41 27 19.0
e 41 307 28.0
e 41 54 13.0
e 41 290 31.0
e 41 195 22.0
e 41 31 39.0
e 41 37 25.0
e 41 171 45.0
e 42 103 1.0
e 43 191 1.0
e 43 134 2.0
e 44 116 23.0
e 44 166 4.0
e 44 92 4.0
e 45 173 2.0
e 45 72 23.0
e 46 175 2.0
e 46 37 2.0
e 47 205 1.0
e 48 57 27.0
e 48 37 15.0
e 48 173 38.0
e 48 91 29.0
e 48 260 32.0
e 48 204 43.0
e 48 148 38.0
e 48 95 30.0
e 48 192 46.0
e 48 151 28.0
e 48 269 5.0
e 48 41 8.0
e 48 232 30.0
e 48 196 34.0
e 48 273 1.0
e 48 89 24.0
e 48 61 32.0
e 48 261 33.0
e 48 230 14.0
e 48 313 2.0
e 48 69 7.0
e 48 233 21.0
e 48 9 31.0
e 48 300 26.0
e 48 87 24.0
e 49 89 43.0
e 49 48 5.0
e 50 209 1.0
e 51 7 1.0
e 52 193 1.0
e 53 8 49.0
e 53 212 38.0
e 53 149 40.0
e 53 16 27.0
e 53 306 23.0
e 53 111 27.0
e 53 101 22.0
e 53 224 11.0
e 53 60 39.0
e 53 52 35.0
e 53 1 45.0
e 53 230 40.0
e 53 194 7.0
e 53 219 10.0
e 53 9 24.0
e 53 260 30.0
e 53 227 10.0
e 53 259 24.0
e 53 238 33.0
e 53 41 9.0
e 54 149 5.0
e 55 210 1.0
e 56 77 29.0
e 56 274 4.0
e 56 231 6.0
e 56 144 16.0
e 57 255 2.0
e 58 210 1.0
e 59 215 39.0
e 59 17 1.0
e 59 314 45.0
e 59 73 2.0
e 60 208 31.0
e 61 99 1.0
e 62 289 1.0
e 63 311 21.0
e 63 35 16.0
e 63 249 31.0
e 63 308 9.0
e 63 124 6.0
e 63 127 2.0
e 63 17 22.0
e 63 276 13.0
e 63 217 16.0
e 63 229 26.0
e 63 209 31.0
e 63 318 41.0
e 63 261 40.0
e 63 255 5.0
e 63 230 38.0
e 63 145 16.0
e 63 72 11.0
e 63 133 21.0
e 63 64 17.0
e 63 262 35.0
e 63 55 1.0
e 63 116 45.0
e 63 81 46.0
e 64 100 16.0
e 64 301 5.0
e 64 10 31.0
e 64 170 6.0
e 64 7 44.0
e 64 139 15.0
e 64 309 16.0
e 64 50 23.0
e 64 36 33.0
e 64 318 4.0
e 64 180 25.0
e 64 76 32.0
e 64 33 30.0
e 64 207 44.0
e 64 244 45.0
e 64 227 25.0
e 64 144 20.0
e 64 3 31.0
e 64 112 18.0
e 64 208 12.0
e 64 34 46.0
e 64 65 45.0
e 65 179 1.0
e 66 211 15.0
e 66 214 17.0
e 66 31 13.0
e 66 2 36.0
e 66 275 49.0
e 66 94 4.0
e 66 191 16.0
e 66 74 12.0
e 66 245 43.0
e 66 222 41.0
e 66 7 17.0
e 66 82 42.0
e 66 183 46.0
e 66 248 25.0
e 66 223 14.0
e 66 53 21.0
e 66 296 47.0
e 66 43 10.0
e 66 177 23.0
e 66 305 19.0
e 66 259 19.0
e 66 184 11.0
e 66 284 5.0
e 67 66 45.0
e 68 246 1.0
e 69 206 1.0
e 70 165 1.0
e 71 183 1.0
e 72 12 11.0
e 72 101 47.0
e 72 225 11.0
e 72 316 4.0
e 72 24 27.0
e 72 117 19.0
e 72 168 2.0
e 72 251 49.0
e 72 71 40.0
e 72 142 39.0
e 72 181 46.0
e 72 314 15.0
e 72 216 18.0
e 72 233 19.0
e 72 227 11.0
e 72 231 35.0
e 72 265 36.0
e 72 118 9.0
e 72 182 36.0
e 72 128 16.0
e 72 38 3.0
e 73 244 1.0
e 74 175 1.0
e 75 34 1.0
e 76 259 2.0
e 77 145 46.0
e 77 112 4.0
e 77 117 33.0
e 77 215 36.0
e 77 311 2.0
e 77 116 3.0
e 77 80 16.0
e 77 147 39.0
e 77 108 22.0
e 77 24 45.0
e 77 0 11.0
e 77 28 41.0
e 77 260 32.0
e 77 166 32.0
e 77 25 34.0
e 77 44 24.0
e 77 154 26.0
e 77 315 35.0
e 77 63 6.0
e 77 57 13.0
e 77 285 4.0
e 77 150 29.0
e 77 103 34.0
e 77 212 34.0
e 78 265 16.0
e 78 106 39.0
e 78 286 18.0
e 78 175 29.0
e 78 119 49.0
e 78 309 7.0
e 78 310 47.0
e 78 304 46.0
e 78 172 29.0
e 78 220 28.0
e 78 174 7.0
e 78 34 16.0
e 78 136 5.0
e 78 296 10.0
e 78 39 18.0
e 78 86 5.0
e 78 188 48.0
e 78 57 32.0
e 78 37 19.0
e 78 28 7.0
e 78 70 32.0
e 78 232 49.0
e 78 300 2.0
e 78 311 8.0
e 79 315 1.0
e 80 239 1.0
e 81 14 1.0
e 82 271 3.0
e 82 55 1.0
e 82 12 27.0
e 82 181 27.0
e 82 274 5.0
e 82 118 6.0
e 82 101 30.0
e 82 198 49.0
e 82 310 22.0
e 82 316 42.0
e 82 113 6.0
e 82 28 24.0
e 82 159 38.0
e 82 189 47.0
e 82 178 4.0
e 82 312 13.0
e 82 146 24.0
e 82 174 37.0
e 82 29 11.0
e 82 94 35.0
e 82 114 44.0
e 82 15 3.0
e 83 94 38.0
e 83 215 28.0
e 83 183 31.0
e 83 176 20.0
e 83 20 15.0
e 83 212 44.0
e 83 89 16.0
e 83 197 26.0
e 83 150 22.0
e 83 125 7.0
e 83 121 2.0
e 83 309 10.0
e 83 272 37.0
e 83 126 14.0
e 83 138 49.0
e 83 3 12.0
e 83 129 19.0
e 83 209 8.0
e 83 231 39.0
e 83 127 33.0
e 83 147 15.0
e 83 165 48.0
e 84 90 2.0
e 85 86 32.0
e 85 106 35.0
e 85 232 48.0
e 85 196 14.0
e 85 169 28.0
e 85 181 44.0
e 85 102 20.0
e 85 40 41.0
e 85 252 4.0
e 85 109 24.0
e 85 287 14.0
e 85 151 27.0
e 85 127 48.0
e 85 59 36.0
e 85 247 44.0
e 85 120 19.0
e 85 282 9.0
e 85 118 8.0
e 85 173 14.0
e 85 156 23.0
e 85 65 40.0
e 85 303 20.0
e 86 213 5.0
e 87 122 2.0
e 88 305 11.0
e 88 310 40.0
e 88 185 32.0
e 88 49 40.0
e 88 137 29.0
e 88 129 1.0
e 88 142 49.0
e 88 313 29.0
e 88 253 28.0
e 88 166 18.0
e 88 162 33.0
e 88 83 43.0
e 88 41 41.0
e 88 13 44.0
e 88 45 33.0
e 88 84 43.0
e 88 122 48.0
e 88 64 42.0
e 88 36 13.0
e 88 6 22.0
e 88 303 24.0
e 88 12 25.0
e 88 309 13.0
e 88 198 3.0
e 88 232 48.0
e 89 181 10.0
e 89 193 10.0
e 89 245 13.0
e 89 174 38.0
e 89 0 9.0
e 89 229 47.0
e 89 214 1.0
e 89 129 1.0
e 89 167 32.0
e 89 102 20.0
e 89 295 10.0
e 89 252 14.0
e 89 5 38.0
e 89 313 31.0
e 89 119 15.0
e 89 212 35.0
e 89 86 26.0
e 89 116 24.0
e 89 77 4.0
e 89 112 41.0
e 90 114 2.0
e 91 262 2.0
e 92 114 1.0
e 93 95 15.0
e 93 99 1.0
e 94 285 7.0
e 94 179 12.0
e 94 219 4.0
e 94 85 3.0
e 94 3 35.0
e 94 310 5.0
e 94 112 31.0
e 94 165 28.0
e 94 93 30.0
e 94 166 15.0
e 94 4 13.0
e 94 96 4.0
e 94 312 28.0
e 94 287 6.0
e 94 318 40.0
e 94 250 13.0
e 94 55 31.0
e 94 12 14.0
e 94 121 8.0
e 95 26 23.0
e 95 51 48.0
e 95 118 1.0
e 95 59 33.0
e 95 234 22.0
e 95 145 40.0
e 95 155 13.0
e 95 241 45.0
e 95 152 26.0
e 95 266 43.0
e 95 4 47.0
e 95 3 41.0
e 95 194 39.0
e 95 31 21.0
e 95 132 4.0
e 95 301 3.0
e 95 273 46.0
e 95 67 1.0
e 95 83 31.0
e 95 85 42.0
e 95 72 27.0
e 95 37 36.0
e 96 211 2.0
e 97 231 1.0
e 98 137 2.0
e 99 211 1.0
e 100 198 1.0
e 101 136 1.0
e 102 126 16.0
e 102 83 25.0
e 102 206 8.0
e 102 69 6.0
e 102 204 1.0
e 102 128 29.0
e 102 6 40.0
e 102 150 30.0
e 102 241 36.0
e 102 199 44.0
e 102 316 41.0
e 102 203 7.0
e 102 284 2.0
e 102 74 9.0
e 102 107 10.0
e 102 173 28.0
e 102 207 20.0
e 102 248 44.0
e 102 148 35.0
e 102 9 26.0
e 102 258 7.0
e 102 32 6.0
e 103 204 2.0
e 104 79 34.0
e 104 82 18.0
e 104 214 49.0
e 104 9 6.0
e 104 262 8.0
e 104 302 11.0
e 104 189 45.0
e 104 95 31.0
e 104 248 42.0
e 104 54 9.0
e 104 15 37.0
e 104 17 2.0
e 104 242 4.0
e 104 16 48.0
e 104 35 30.0
e 104 136 44.0
e 104 72 43.0
e 104 265 1.0
e 104 106 29.0
e 104 210 43.0
e 104 161 16.0
e 104 182 22.0
e 105 155 1.0
e 106 154 18.0
e 106 60 43.0
e 106 55 32.0
e 106 81 24.0
e 106 292 29.0
e 106 6 32.0
e 106 267 49.0
e 106 126 31.0
e 106 23 30.0
e 106 232 20.0
e 106 209 24.0
e 106 105 41.0
e 106 176 10.0
e 106 202 24.0
e 106 38 34.0
e 106 257 9.0
e 106 179 2.0
e 106 250 4.0
e 106 182 19.0
e 107 268 1.0
e 108 177 1.0
e 109 33 1.0
e 110 85 8.0
e 110 139 21.0
e 110 205 45.0
e 110 105 3.0
e 110 176 31.0
e 110 136 20.0
e 110 106 23.0
e 110 300 28.0
e 110 23 1.0
e 110 145 39.0
e 110 158 30.0
e 110 92 20.0
e 110 269 29.0
e 110 200 15.0
e 110 80 44.0
e 110 214 9.0
e 110 179 5.0
e 110 206 49.0
e 110 86 30.0
e 110 180 5.0
e 110 281 41.0
e 110 4 16.0
e 110 141 41.0
e 111 309 1.0
e 112 100 42.0
e 112 1 11.0
e 112 201 43.0
e 112 168 49.0
e 112 301 17.0
e 112 183 23.0
e 112 48 2.0
e 112 220 28.0
e 112 53 2.0
e 112 49 45.0
e 112 173 24.0
e 112 237 25.0
e 112 235 3.0
e 112 279 32.0
e 112 5 25.0
e 112 157 49.0
e 112 87 45.0
e 112 316 31.0
e 112 261 27.0
e 112 2 44.0
e 113 241 40.0
e 113 78 46.0
e 113 10 38.0
e 113 216 27.0
e 113 188 43.0
e 113 88 34.0
e 113 132 12.0
e 113 75 32.0
e 113 72 48.0
e 113 114 15.0
e 113 318 35.0
e 113 225 15.0
e 113 247 48.0
e 113 275 1.0
e 113 153 16.0
e 113 160 12.0
e 113 194 14.0
e 113 306 48.0
e 113 214 19.0
e 113 201 17.0
e 113 265 4.0
e 113 186 29.0
e 114 230 16.0
e 115 273 5.0
e 115 143 45.0
e 115 73 8.0
e 115 106 27.0
e 115 293 23.0
e 115 69 12.0
e 115 180 43.0
e 115 15 11.0
e 115 206 36.0
e 115 199 18.0
e 115 5 36.0
e 115 26 28.0
e 115 300 4.0
e 115 130 1.0
e 115 262 21.0
e 115 265 17.0
e 115 129 13.0
e 115 256 45.0
e 115 131 15.0
e 115 229 14.0
e 115 17 44.0
e 115 162 8.0
e 115 184 21.0
e 115 91 9.0
e 116 229 30.0
e 116 207 11.0
e 116 112 42.0
e 116 13 41.0
e 116 134 6.0
e 116 270 43.0
e 116 152 16.0
e 116 268 6.0
e 116 245 25.0
e 116 148 12.0
e 116 120 14.0
e 116 126 10.0
e 116 253 11.0
e 116 142 5.0
e 116 241 19.0
e 116 54 40.0
e 116 58 17.0
e 116 212 7.0
e 116 41 23.0
e 116 83 32.0
e 117 291 1.0
e 118 253 3.0
e 118 202 3.0
e 118 102 40.0
e 118 266 31.0
e 118 104 46.0
e 118 89 20.0
e 118 196 17.0
e 118 271 15.0
e 118 116 6.0
e 118 185 11.0
e 118 69 27.0
e 118 68 47.0
e 118 40 44.0
e 118 10 2.0
e 118 13 49.0
e 118 66 30.0
e 118 120 27.0
e 118 305 27.0
e 118 25 25.0
e 118 298 11.0
e 119 184 1.0
e 120 278 46.0
e 121 168 1.0
e 122 111 1.0
e 123 284 1.0
e 124 316 1.0
e 125 178 1.0
e 126 158 6.0
e 127 163 1.0
e 128 243 2.0
e 129 142 1.0
e 130 254 41.0
e 130 31 24.0
e 130 70 1.0
e 131 194 2.0
e 132 227 2.0
e 133 31 37.0
e 134 80 1.0
e 135 200 4.0
e 136 266 3.0
e 137 26 47.0
e 138 256 8.0
e 138 292 18.0
e 138 12 33.0
e 138 285 35.0
e 138 311 37.0
e 138 299 26.0
e 138 88 41.0
e 138 252 11.0
e 138 42 2.0
e 138 168 43.0
e 138 312 11.0
e 138 160 21.0
e 138 250 22.0
e 138 11 6.0
e 138 159 5.0
e 138 15 42.0
e 138 167 37.0
e 138 295 22.0
e 138 6 48.0
e 138 17 34.0
e 139 193 1.0
e 140 203 1.0
e 141 296 27.0
e 142 103 2.0
e 143 90 48.0
e 143 277 20.0
e 143 215 22.0
e 143 313 34.0
e 143 144 48.0
e 143 224 45.0
e 143 159 7.0
e 143 258 18.0
e 143 195 10.0
e 143 134 36.0
e 143 68 40.0
e 143 160 4.0
e 143 155 46.0
e 143 184 40.0
e 143 161 41.0
e 143 49 42.0
e 143 170 1.0
e 143 294 43.0
e 143 82 35.0
e 143 286 16.0
e 143 242 22.0
e 143 311 23.0
e 144 84 17.0
e 144 26 38.0
e 144 75 27.0
e 144 140 34.0
e 144 110 24.0
e 144 319 47.0
e 144 38 47.0
e 144 194 17.0
e 144 208 31.0
e 144 160 29.0
e 144 199 28.0
e 144 158 8.0
e 144 11 14.0
e 144 15 47.0
e 144 207 29.0
e 144 298 49.0
e 144 128 9.0
e 144 278 29.0
e 144 200 47.0
e 144 57 28.0
e 145 159 1.0
e 146 71 1.0
e 147 32 17.0
e 148 98 5.0
e 149 274 2.0
e 150 10 1.0
e 151 228 1.0
e 152 31 29.0
e 153 255 1.0
e 154 244 2.0
e 155 64 41.0
e 156 264 1.0
e 157 135 38.0
e 157 212 37.0
e 157 7 42.0
e 157 18 30.0
e 157 51 47.0
e 157 146 18.0
e 157 242 42.0
e 157 54 33.0
e 157 32 8.0
e 157 301 35.0
e 157 317 7.0
e 157 304 12.0
e 157 166 20.0
e 157 230 2.0
e 157 68 27.0
e 157 19 27.0
e 157 70 2.0
e 157 77 20.0
e 157 57 35.0
e 157 248 21.0
e 157 229 14.0
e 157 67 16.0
e 158 135 1.0
e 159 166 2.0
e 160 95 44.0
e 161 126 2.0
e 162 53 34.0
e 163 67 4.0
e 164 287 11.0
e 164 296 32.0
e 164 31 35.0
e 164 18 32.0
e 164 128 27.0
e 164 212 40.0
e 164 245 17.0
e 164 0 18.0
e 164 19 40.0
e 164 226 12.0
e 164 317 7.0
e 164 274 20.0
e 164 230 11.0
e 164 99 10.0
e 164 242 35.0
e 164 229 7.0
e 164 198 15.0
e 164 251 14.0
e 164 139 31.0
e 164 272 20.0
e 164 213 8.0
e 164 163 49.0
e 164 237 3.0
e 164 319 19.0
e 164 281 43.0
e 165 272 1.0
e 166 99 1.0
e 167 14 1.0
e 168 117 24.0
e 168 307 43.0
e 168 283 15.0
e 168 314 14.0
e 168 11 1.0
e 168 253 41.0
e 168 236 24.0
e 168 70 17.0
e 168 66 31.0
e 168 223 7.0
e 168 271 35.0
e 168 286 19.0
e 168 296 28.0
e 168 194 3.0
e 168 18 12.0
e 168 45 25.0
e 168 303 47.0
e 168 44 8.0
e 168 118 21.0
e 168 176 41.0
e 169 313 38.0
e 170 44 5.0
e 171 52 22.0
e 171 258 3.0
e 171 317 17.0
e 171 83 29.0
e 171 282 13.0
e 171 51 9.0
e 171 319 24.0
e 171 296 33.0
e 171 263 38.0
e 171 275 43.0
e 171 212 33.0
e 171 271 48.0
e 171 276 22.0
e 171 141 24.0
e 171 145 16.0
e 171 92 2.0
e 171 66 40.0
e 171 33 7.0
e 171 72 29.0
e 171 192 43.0
e 171 313 34.0
e 171 289 45.0
e 171 281 8.0
e 171 112 27.0
e 172 222 2.0
e 173 260 1.0
e 174 304 32.0
e 174 185 49.0
e 174 91 42.0
e 174 72 2.0
e 174 232 33.0
e 174 125 19.0
e 174 87 6.0
e 174 35 49.0
e 174 275 23.0
e 174 319 26.0
e 174 130 11.0
e 174 66 8.0
e 174 5 15.0
e 174 85 48.0
e 174 100 2.0
e 174 308 3.0
e 174 23 17.0
e 174 109 26.0
e 174 106 44.0
e 174 11 23.0
e 175 103 2.0
e 176 52 31.0
e 176 287 22.0
e 176 290 13.0
e 176 20 26.0
e 176 152 19.0
e 176 212 31.0
e 176 135 46.0
e 176 46 22.0
e 176 302 44.0
e 176 32 24.0
e 176 264 6.0
e 176 94 34.0
e 176 130 2.0
e 176 149 20.0
e 176 174 6.0
e 176 64 45.0
e 176 43 4.0
e 176 284 43.0
e 176 155 9.0
e 176 127 30.0
e 177 34 1.0
e 178 223 37.0
e 179 312 1.0
e 180 162 1.0
e 181 66 3.0
e 182 175 1.0
e 183 272 2.0
e 184 174 5.0
e 185 132 1.0
e 186 122 1.0
e 186 308 48.0
e 186 64 10.0
e 186 313 42.0
e 186 24 21.0
e 186 215 41.0
e 186 187 3.0
e 186 102 40.0
e 186 32 11.0
e 186 246 44.0
e 186 36 23.0
e 186 92 9.0
e 186 161 3.0
e 186 167 29.0
e 186 226 2.0
e 186 61 29.0
e 186 185 1.0
e 186 295 45.0
e 186 168 38.0
e 186 247 47.0
e 186 124 32.0
e 186 294 29.0
e 186 97 41.0
e 186 184 30.0
e 187 113 24.0
e 187 18 28.0
e 187 148 42.0
e 187 99 31.0
e 187 139 29.0
e 187 54 35.0
e 187 85 37.0
e 187 43 38.0
e 187 132 22.0
e 187 251 15.0
e 187 225 29.0
e 187 11 9.0
e 187 19 39.0
e 187 243 43.0
e 187 143 37.0
e 187 304 12.0
e 187 257 49.0
e 187 20 42.0
e 187 130 9.0
e 187 64 27.0
e 187 188 14.0
e 187 115 44.0
e 187 155 20.0
e 187 49 21.0
e 188 177 2.0
e 189 123 1.0
e 190 135 1.0
e 191 89 43.0
e 192 97 2.0
e 193 157 39.0
e 194 19 1.0
e 195 83 42.0
e 196 274 1.0
e 197 84 30.0
e 197 115 41.0
e 197 142 48.0
e 197 282 5.0
e 197 294 4.0
e 197 8 6.0
e 197 54 43.0
e 197 113 2.0
e 197 28 45.0
e 197 38 34.0
e 197 150 40.0
e 197 59 1.0
e 197 125 34.0
e 197 237 24.0
e 197 245 12.0
e 197 50 1.0
e 197 265 5.0
e 197 0 16.0
e 197 105 19.0
e 197 162 8.0
e 197 278 20.0
e 197 48 40.0
e 197 146 39.0
e 198 71 1.0
e 199 302 48.0
e 199 180 7.0
e 199 163 2.0
e 199 271 10.0
e 199 36 27.0
e 199 8 24.0
e 199 32 24.0
e 199 136 41.0
e 199 62 14.0
e 199 152 28.0
e 199 5 22.0
e 199 33 39.0
e 199 47 19.0
e 199 73 32.0
e 199 161 46.0
e 199 308 38.0
e 199 38 26.0
e 199 57 17.0
e 199 213 6.0
e 199 226 46.0
e 199 305 16.0
e 199 42 13.0
e 200 148 28.0
e 200 195 42.0
e 200 277 7.0
e 200 85 3.0
e 200 118 48.0
e 200 215 41.0
e 200 296 12.0
e 200 126 42.0
e 200 8 19.0
e 200 41 20.0
e 200 248 5.0
e 200 25 43.0
e 200 121 43.0
e 200 314 1.0
e 200 107 13.0
e 200 62 21.0
e 200 102 19.0
e 200 74 15.0
e 200 138 28.0
e 200 105 43.0
e 200 95 7.0
e 200 304 4.0
e 201 172 20.0
e 201 219 31.0
e 201 62 29.0
e 201 277 9.0
e 201 157 19.0
e 201 208 5.0
e 201 33 33.0
e 201 288 29.0
e 201 18 24.0
e 201 74 37.0
e 201 139 36.0
e 201 19 32.0
e 201 278 7.0
e 201 317 6.0
e 201 78 19.0
e 201 56 35.0
e 201 67 22.0
e 201 239 31.0
e 201 167 49.0
e 201 75 14.0
e 201 156 33.0
e 201 81 36.0
e 202 58 1.0
e 202 304 35.0
e 202 279 1.0
e 202 193 14.0
e 202 313 42.0
e 202 192 6.0
e 202 195 9.0
e 202 306 12.0
e 202 60 32.0
e 202 102 5.0
e 202 90 47.0
e 202 243 44.0
e 202 123 8.0
e 202 46 9.0
e 202 162 41.0
e 202 110 11.0
e 202 219 43.0
e 202 260 29.0
e 202 197 45.0
e 202 82 26.0
e 202 89 2.0
e 203 65 1.0
e 204 122 1.0
e 205 98 1.0
e 206 152 2.0
e 207 76 1.0
e 208 121 13.0
e 208 89 38.0
e 208 47 32.0
e 208 163 45.0
e 208 81 23.0
e 208 162 10.0
e 208 102 38.0
e 208 317 31.0
e 208 319 23.0
e 208 275 43.0
e 208 1 31.0
e 208 82 3.0
e 208 308 13.0
e 208 59 16.0
e 208 199 36.0
e 208 240 7.0
e 208 255 31.0
e 208 170 41.0
e 208 164 29.0
e 208 107 46.0
e 209 193 3.0
e 210 206 1.0
e 211 307 1.0
e 212 117 22.0
e 212 8 31.0
e 212 239 5.0
e 212 169 36.0
e 212 75 16.0
e 212 78 1.0
e 212 253 35.0
e 212 130 37.0
e 212 184 18.0
e 212 22 31.0
e 212 24 45.0
e 212 79 5.0
e 212 271 5.0
e 212 313 8.0
e 212 186 10.0
e 213 55 36.0
e 213 174 3.0
e 213 140 45.0
e 213 137 12.0
e 213 81 26.0
e 213 40 1.0
e 213 222 25.0
e 213 78 8.0
e 213 197 19.0
e 213 130 8.0
e 213 163 49.0
e 213 138 20.0
e 213 141 4.0
e 213 219 14.0
e 213 243 22.0
e 213 268 23.0
e 213 94 49.0
e 213 304 35.0
e 213 232 18.0
e 213 60 39.0
e 213 77 13.0
e 214 305 1.0
e 215 195 40.0
e 215 126 15.0
e 215 88 26.0
e 215 157 47.0
e 215 144 1.0
e 215 93 6.0
e 215 306 1.0
e 215 107 20.0
e 215 20 21.0
e 215 227 25.0
e 215 232 21.0
e 215 296 36.0
e 215 78 30.0
e 215 97 48.0
e 215 313 21.0
e 215 180 8.0
e 215 317 12.0
e 215 187 2.0
e 216 16 1.0
e 217 210 2.0
e 218 53 24.0
e 219 82 6.0
e 220 215 3.0
e 221 249 1.0
e 222 216 1.0
e 223 75 11.0
e 223 164 26.0
e 223 246 6.0
e 223 290 3.0
e 223 270 16.0
e 223 43 30.0
e 223 169 47.0
e 223 230 28.0
e 223 286 41.0
e 223 112 33.0
e 223 106 44.0
e 223 113 42.0
e 223 118 34.0
e 223 25 29.0
e 223 306 2.0
e 223 114 48.0
e 223 89 41.0
e 223 119 21.0
e 223 279 25.0
e 223 115 17.0
e 224 47 3.0
e 225 217 1.0
e 226 177 1.0
e 227 86 1.0
e 228 23 1.0
e 229 185 1.0
e 230 313 17.0
e 230 87 24.0
e 230 188 3.0
e 230 93 14.0
e 230 104 48.0
e 230 88 46.0
e 230 116 35.0
e 230 266 28.0
e 230 20 43.0
e 230 212 44.0
e 230 49 19.0
e 230 56 30.0
e 230 304 46.0
e 230 58 29.0
e 230 64 9.0
e 230 317 47.0
e 230 98 23.0
e 230 213 48.0
e 231 211 1.0
e 232 239 22.0
e 232 112 26.0
e 232 304 25.0
e 232 255 9.0
e 232 2 17.0
e 232 200 32.0
e 232 34 40.0
e 232 180 5.0
e 232 220 2.0
e 232 275 23.0
e 232 263 10.0
e 232 21 19.0
e 232 317 45.0
e 232 45 7.0
e 232 314 44.0
e 233 188 1.0
e 234 305 6.0
e 234 186 7.0
e 235 73 1.0
e 236 104 2.0
e 237 61 27.0
e 237 79 32.0
e 237 96 16.0
e 237 26 9.0
e 237 28 18.0
e 237 50 14.0
e 237 313 7.0
e 237 215 1.0
e 237 186 43.0
e 237 249 19.0
e 237 108 38.0
e 237 208 24.0
e 237 199 46.0
e 237 205 48.0
e 237 245 12.0
e 237 168 35.0
e 237 216 19.0
e 237 230 43.0
e 237 148 22.0
e 237 77 17.0
e 237 254 18.0
e 238 128 11.0
e 238 106 36.0
e 238 213 3.0
e 238 131 6.0
e 238 288 15.0
e 238 132 9.0
e 238 214 20.0
e 238 43 37.0
e 238 215 40.0
e 238 133 47.0
e 238 218 24.0
e 238 190 27.0
e 238 174 43.0
e 238 21 47.0
e 238 87 13.0
e 238 137 49.0
e 238 313 3.0
e 238 138 34.0
e 238 22 18.0
e 238 275 25.0
e 238 143 8.0
e 238 239 19.0
e 239 26 7.0
e 240 106 41.0
e 241 111 1.0
e 242 301 1.0
e 243 140 1.0
e 244 74 2.0
e 245 294 13.0
e 245 108 26.0
e 245 313 24.0
e 245 44 29.0
e 245 296 49.0
e 245 29 10.0
e 245 21 8.0
e 245 168 43.0
e 245 186 10.0
e 245 259 14.0
e 245 276 12.0
e 245 131 27.0
e 245 249 34.0
e 245 221 38.0
e 245 118 42.0
e 245 109 7.0
e 245 270 18.0
e 245 170 31.0
e 246 219 1.0
e 247 318 25.0
e 247 120 1.0
e 247 187 17.0
e 247 208 1.0
e 247 44 37.0
e 247 63 27.0
e 247 212 17.0
e 247 277 29.0
e 247 205 44.0
e 247 104 38.0
e 247 281 22.0
e 247 77 18.0
e 247 189 35.0
e 247 172 23.0
e 247 6 41.0
e 247 228 10.0
e 247 62 13.0
e 247 278 4.0
e 247 221 36.0
e 247 95 44.0
e 247 152 7.0
e 248 54 5.0
e 249 315 1.0
e 250 80 1.0
e 251 207 1.0
e 252 220 1.0
e 253 20 3.0
e 254 9 26.0
e 254 197 2.0
e 254 176 40.0
e 254 251 47.0
e 254 171 42.0
e 254 21 18.0
e 254 164 3.0
e 254 256 6.0
e 254 56 43.0
e 254 269 40.0
e 254 168 14.0
e 254 36 5.0
e 254 104 38.0
e 254 140 15.0
e 254 53 24.0
e 254 22 13.0
e 254 108 11.0
e 254 198 23.0
e 254 26 8.0
e 254 27 49.0
e 254 112 17.0
e 254 40 16.0
e 254 172 28.0
e 255 278 16.0
e 256 210 33.0
e 256 82 3.0
e 256 186 40.0
e 256 307 11.0
e 256 255 44.0
e 256 205 39.0
e 256 213 29.0
e 256 230 19.0
e 256 197 31.0
e 256 171 23.0
e 256 304 40.0
e 256 259 42.0
e 256 29 4.0
e 256 8 28.0
e 256 280 17.0
e 256 289 16.0
e 256 228 45.0
e 256 34 31.0
e 257 105 1.0
e 258 291 2.0
e 259 264 37.0
e 259 168 30.0
e 259 67 33.0
e 259 317 24.0
e 259 304 13.0
e 259 270 45.0
e 259 243 44.0
e 259 98 11.0
e 259 174 32.0
e 259 238 15.0
e 259 153 35.0
e 259 88 33.0
e 259 124 13.0
e 259 313 37.0
e 259 154 1.0
e 259 197 16.0
e 260 83 39.0
e 261 52 1.0
e 262 233 2.0
e 263 76 12.0
e 263 172 38.0
e 263 79 12.0
e 263 108 30.0
e 263 212 40.0
e 263 281 11.0
e 263 189 43.0
e 263 174 28.0
e 263 224 1.0
e 263 89 31.0
e 263 217 23.0
e 263 144 16.0
e 263 230 3.0
e 263 131 25.0
e 263 26 4.0
e 263 317 35.0
e 263 109 47.0
e 263 30 36.0
e 263 115 20.0
e 263 176 46.0
e 263 63 41.0
e 263 199 11.0
e 263 270 49.0
e 264 101 1.0
e 265 165 1.0
e 266 149 13.0
e 266 232 25.0
e 266 91 5.0
e 266 2 47.0
e 266 212 7.0
e 266 259 7.0
e 266 228 44.0
e 266 39 37.0
e 266 42 4.0
e 266 109 35.0
e 266 146 46.0
e 266 235 3.0
e 266 92 45.0
e 266 313 20.0
e 266 233 8.0
e 266 215 38.0
e 266 245 40.0
e 266 93 2.0
e 266 63 35.0
e 266 110 25.0
e 267 259 22.0
e 267 187 43.0
e 267 22 27.0
e 267 27 8.0
e 267 212 28.0
e 267 110 13.0
e 267 252 11.0
e 267 254 5.0
e 267 222 29.0
e 267 29 36.0
e 267 235 36.0
e 267 113 37.0
e 267 30 31.0
e 267 190 9.0
e 267 221 24.0
e 267 200 26.0
e 267 93 32.0
e 267 63 20.0
e 267 232 24.0
e 267 313 33.0
e 267 317 48.0
e 267 151 39.0
e 267 115 10.0
e 268 279 2.0
e 269 203 1.0
e 270 25 2.0
e 270 266 33.0
e 270 94 30.0
e 270 187 42.0
e 270 27 29.0
e 270 104 26.0
e 270 30 2.0
e 270 144 45.0
e 270 202 35.0
e 270 147 17.0
e 270 247 30.0
e 270 95 30.0
e 270 199 41.0
e 270 200 16.0
e 270 118 5.0
e 270 234 30.0
e 270 215 36.0
e 270 201 26.0
e 270 22 2.0
e 271 308 1.0
e 272 259 32.0
e 273 267 5.0
e 274 108 2.0
e 275 157 21.0
e 276 7 10.0
e 276 247 10.0
e 276 277 29.0
e 276 39 33.0
e 276 240 44.0
e 276 123 43.0
e 276 119 38.0
e 276 110 17.0
e 276 94 1.0
e 276 44 9.0
e 276 295 18.0
e 276 27 20.0
e 276 29 6.0
e 276 30 19.0
e 276 278 16.0
e 276 286 43.0
e 276 53 8.0
e 276 254 22.0
e 276 121 44.0
e 277 244 2.0
e 278 220 42.0
e 278 46 38.0
e 278 215 36.0
e 278 133 49.0
e 278 317 28.0
e 278 280 49.0
e 278 122 45.0
e 278 67 49.0
e 278 1 7.0
e 278 116 33.0
e 278 146 24.0
e 278 113 31.0
e 278 281 39.0
e 278 187 45.0
e 278 230 14.0
e 278 190 4.0
e 278 164 28.0
e 278 131 48.0
e 279 181 1.0
e 280 218 1.0
e 281 257 2.0
e 282 177 1.0
e 283 114 2.0
e 284 297 10.0
e 285 310 2.0
e 286 105 17.0
e 286 94 7.0
e 286 221 37.0
e 286 95 41.0
e 286 164 20.0
e 286 208 17.0
e 286 153 40.0
e 286 240 16.0
e 286 230 32.0
e 286 278 22.0
e 286 232 45.0
e 286 191 48.0
e 286 156 25.0
e 286 96 28.0
e 286 140 23.0
e 286 123 47.0
e 286 222 18.0
e 286 30 3.0
e 286 280 9.0
e 287 294 20.0
e 288 276 12.0
e 289 285 1.0
e 290 138 46.0
e 290 96 37.0
e 290 133 49.0
e 290 97 29.0
e 290 280 18.0
e 290 172 43.0
e 290 191 13.0
e 290 171 16.0
e 290 137 42.0
e 290 98 21.0
e 290 39 10.0
e 290 237 1.0
e 290 263 48.0
e 290 123 15.0
e 290 40 18.0
e 290 192 15.0
e 290 288 8.0
e 290 42 10.0
e 290 113 4.0
e 290 116 1.0
e 290 218 1.0
e 291 155 2.0
e 292 51 1.0
e 293 61 1.0
e 294 315 29.0
e 294 286 44.0
e 294 133 13.0
e 294 223 11.0
e 294 96 10.0
e 294 313 16.0
e 294 42 44.0
e 294 116 20.0
e 294 119 11.0
e 294 292 3.0
e 294 147 31.0
e 294 265 35.0
e 294 224 40.0
e 294 314 18.0
e 294 176 13.0
e 294 124 22.0
e 294 56 35.0
e 294 202 35.0
e 295 143 41.0
e 295 45 41.0
e 295 120 29.0
e 295 297 11.0
e 295 153 34.0
e 295 59 21.0
e 295 125 16.0
e 295 137 29.0
e 295 141 38.0
e 295 286 38.0
e 295 223 10.0
e 295 263 41.0
e 295 176 30.0
e 295 191 37.0
e 295 46 26.0
e 295 144 46.0
e 295 47 8.0
e 295 147 23.0
e 295 148 14.0
e 296 299 30.0
e 296 297 30.0
e 296 304 1.0
e 296 292 39.0
e 296 191 41.0
e 296 125 46.0
e 296 138 46.0
e 296 199 30.0
e 296 223 12.0
e 296 143 17.0
e 296 290 10.0
e 296 48 19.0
e 296 45 13.0
e 296 144 14.0
e 296 293 11.0
e 296 218 15.0
e 297 238 19.0
e 297 176 44.0
e 298 241 1.0
e 299 36 2.0
e 299 282 18.0
e 299 213 5.0
e 299 141 27.0
e 299 263 24.0
e 299 148 13.0
e 299 1 33.0
e 299 254 22.0
e 299 153 18.0
e 299 237 20.0
e 299 298 4.0
e 299 46 37.0
e 299 143 49.0
e 299 256 6.0
e 299 270 8.0
e 299 257 20.0
e 299 147 16.0
e 299 200 13.0
e 299 48 40.0
e 299 149 9.0
e 299 288 23.0
e 299 150 44.0
e 300 18 4.0
e 301 193 2.0
e 302 82 25.0
e 303 179 1.0
e 304 94 29.0
e 304 53 45.0
e 304 138 37.0
e 304 56 35.0
e 304 143 25.0
e 304 208 39.0
e 304 192 14.0
e 304 154 23.0
e 304 58 3.0
e 304 66 32.0
e 304 270 29.0
e 304 156 6.0
e 304 158 16.0
e 305 14 3.0
e 306 272 1.0
e 307 51 1.0
e 308 39 1.0
e 309 302 1.0
e 310 178 1.0
e 311 16 1.0
e 312 228 1.0
e 313 208 40.0
e 313 154 8.0
e 313 157 9.0
e 313 192 39.0
e 313 235 42.0
e 313 254 28.0
e 313 158 19.0
e 314 190 30.0
e 314 2 20.0
e 314 171 7.0
e 314 201 8.0
e 314 58 31.0
e 314 154 7.0
e 314 157 8.0
e 314 202 30.0
e 314 208 13.0
e 314 213 4.0
e 314 268 35.0
e 314 218 19.0
e 314 223 25.0
e 314 224 18.0
e 314 233 48.0
e 314 234 31.0
e 314 313 11.0
e 314 235 8.0
e 315 247 28.0
e 316 225 1.0
e 317 159 30.0
e 317 200 13.0
e 317 202 1.0
e 317 218 11.0
e 317 223 21.0
e 317 280 49.0
e 317 234 26.0
e 317 236 16.0
e 317 254 38.0
e 317 237 40.0
e 317 238 9.0
e 317 313 40.0
e 317 240 41.0
e 318 232 13.0
e 319 300 1.0
